c Sudoku solution
p cnf 729 0
136 0
192 0
212 0
227 0
253 0
269 0
286 0
319 0
335 0
373 0
397 0
426 0
541 0
565 0
659 0
662 0
685 0
415 0
691 0
431 0
271 0
713 0
123 0
749 0
768 0
844 0
878 0
911 0
816 0
321 0
952 0
342 0
967 0
366 0
584 0
388 0
189 0
354 0
161 0
464 0
863 0
983 0
518 0
624 0
617 0
633 0
593 0
498 0
443 0
457 0
482 0
479 0
577 0
676 0
556 0
648 0
114 0
238 0
175 0
294 0
245 0
928 0
946 0
147 0
158 0
772 0
796 0
725 0
734 0
939 0
837 0
822 0
751 0
855 0
787 0
881 0
899 0
529 0
532 0
974 0
995 0
